(declare-fun I0_127 () Int)
(declare-fun I0_15 () Int)
(declare-fun I0_175 () Int)
(declare-fun I0_18 () Int)
(declare-fun I0_190 () Int)
(declare-fun I0_2 () Int)
(declare-fun I0_207 () Int)
(declare-fun I0_23 () Int)
(declare-fun I0_39 () Int)
(declare-fun I0_4 () Int)
(declare-fun I0_6 () Int)
(declare-fun I0_82 () Int)
(declare-fun I0_97 () Int)
(declare-fun I1_127 () Int)
(declare-fun I1_207 () Int)
(declare-fun I1_23 () Int)
(declare-fun I2_127 () Int)
(declare-fun I2_207 () Int)
(declare-fun I2_23 () Int)
(declare-fun PCTEMP_LHS_1 () Int)
(declare-fun PCTEMP_LHS_10 () String)
(declare-fun PCTEMP_LHS_11 () Int)
(declare-fun PCTEMP_LHS_12 () Int)
(declare-fun PCTEMP_LHS_13 () String)
(declare-fun PCTEMP_LHS_2 () Int)
(declare-fun PCTEMP_LHS_3 () Int)
(declare-fun PCTEMP_LHS_4 () Int)
(declare-fun PCTEMP_LHS_5 () Int)
(declare-fun PCTEMP_LHS_6 () String)
(declare-fun PCTEMP_LHS_7 () Int)
(declare-fun PCTEMP_LHS_8 () Int)
(declare-fun PCTEMP_LHS_9 () Int)
(declare-fun T0_15 () String)
(declare-fun T0_175 () String)
(declare-fun T0_18 () String)
(declare-fun T0_190 () String)
(declare-fun T0_2 () String)
(declare-fun T0_39 () String)
(declare-fun T0_4 () String)
(declare-fun T0_6 () String)
(declare-fun T0_82 () String)
(declare-fun T0_97 () String)
(declare-fun T1_127 () String)
(declare-fun T1_15 () String)
(declare-fun T1_175 () String)
(declare-fun T1_18 () String)
(declare-fun T1_190 () String)
(declare-fun T1_2 () String)
(declare-fun T1_207 () String)
(declare-fun T1_23 () String)
(declare-fun T1_39 () String)
(declare-fun T1_4 () String)
(declare-fun T1_6 () String)
(declare-fun T1_82 () String)
(declare-fun T1_97 () String)
(declare-fun T2_127 () String)
(declare-fun T2_15 () String)
(declare-fun T2_175 () String)
(declare-fun T2_18 () String)
(declare-fun T2_190 () String)
(declare-fun T2_2 () String)
(declare-fun T2_207 () String)
(declare-fun T2_23 () String)
(declare-fun T2_39 () String)
(declare-fun T2_4 () String)
(declare-fun T2_6 () String)
(declare-fun T2_82 () String)
(declare-fun T2_97 () String)
(declare-fun T3_127 () String)
(declare-fun T3_15 () String)
(declare-fun T3_175 () String)
(declare-fun T3_18 () String)
(declare-fun T3_190 () String)
(declare-fun T3_2 () String)
(declare-fun T3_207 () String)
(declare-fun T3_23 () String)
(declare-fun T3_39 () String)
(declare-fun T3_4 () String)
(declare-fun T3_6 () String)
(declare-fun T3_82 () String)
(declare-fun T3_97 () String)
(declare-fun T4_15 () String)
(declare-fun T4_175 () String)
(declare-fun T4_18 () String)
(declare-fun T4_190 () String)
(declare-fun T4_2 () String)
(declare-fun T4_39 () String)
(declare-fun T4_4 () String)
(declare-fun T4_6 () String)
(declare-fun T4_82 () String)
(declare-fun T4_97 () String)
(declare-fun T5_15 () String)
(declare-fun T5_175 () String)
(declare-fun T5_18 () String)
(declare-fun T5_190 () String)
(declare-fun T5_2 () String)
(declare-fun T5_39 () String)
(declare-fun T5_4 () String)
(declare-fun T5_6 () String)
(declare-fun T5_82 () String)
(declare-fun T5_97 () String)
(declare-fun T_10 () Int)
(declare-fun T_12 () Bool)
(declare-fun T_13 () Bool)
(declare-fun T_14 () String)
(declare-fun T_15 () String)
(declare-fun T_16 () String)
(declare-fun T_17 () String)
(declare-fun T_18 () String)
(declare-fun T_19 () String)
(declare-fun T_1b () Bool)
(declare-fun T_1c () String)
(declare-fun T_1d () String)
(declare-fun T_1e () String)
(declare-fun T_1f () String)
(declare-fun T_20 () String)
(declare-fun T_21 () String)
(declare-fun T_22 () Bool)
(declare-fun T_23 () Bool)
(declare-fun T_24 () String)
(declare-fun T_25 () String)
(declare-fun T_26 () String)
(declare-fun T_27 () String)
(declare-fun T_28 () String)
(declare-fun T_29 () String)
(declare-fun T_2a () Bool)
(declare-fun T_2b () Bool)
(declare-fun T_2c () String)
(declare-fun T_2d () String)
(declare-fun T_2e () String)
(declare-fun T_2f () String)
(declare-fun T_30 () String)
(declare-fun T_31 () String)
(declare-fun T_33 () Bool)
(declare-fun T_34 () String)
(declare-fun T_35 () String)
(declare-fun T_36 () String)
(declare-fun T_37 () String)
(declare-fun T_38 () String)
(declare-fun T_39 () String)
(declare-fun T_3b () Bool)
(declare-fun T_3c () String)
(declare-fun T_3d () String)
(declare-fun T_3e () String)
(declare-fun T_3f () String)
(declare-fun T_4 () Bool)
(declare-fun T_40 () String)
(declare-fun T_41 () String)
(declare-fun T_42 () Int)
(declare-fun T_43 () String)
(declare-fun T_44 () String)
(declare-fun T_45 () String)
(declare-fun T_46 () String)
(declare-fun T_47 () String)
(declare-fun T_48 () String)
(declare-fun T_49 () Int)
(declare-fun T_4b () Bool)
(declare-fun T_4c () Bool)
(declare-fun T_4d () Bool)
(declare-fun T_4e () Bool)
(declare-fun T_4f () Bool)
(declare-fun T_5 () Bool)
(declare-fun T_50 () Bool)
(declare-fun T_51 () String)
(declare-fun T_52 () String)
(declare-fun T_53 () String)
(declare-fun T_54 () String)
(declare-fun T_55 () String)
(declare-fun T_56 () String)
(declare-fun T_57 () Bool)
(declare-fun T_58 () Bool)
(declare-fun T_59 () String)
(declare-fun T_5a () String)
(declare-fun T_5b () String)
(declare-fun T_5c () String)
(declare-fun T_5d () String)
(declare-fun T_5e () String)
(declare-fun T_5f () Bool)
(declare-fun T_6 () Bool)
(declare-fun T_60 () Bool)
(declare-fun T_61 () String)
(declare-fun T_62 () String)
(declare-fun T_63 () String)
(declare-fun T_64 () String)
(declare-fun T_65 () String)
(declare-fun T_66 () String)
(declare-fun T_68 () Bool)
(declare-fun T_69 () String)
(declare-fun T_6a () String)
(declare-fun T_6b () String)
(declare-fun T_6c () String)
(declare-fun T_6d () String)
(declare-fun T_6e () String)
(declare-fun T_7 () Bool)
(declare-fun T_70 () Bool)
(declare-fun T_71 () Bool)
(declare-fun T_72 () String)
(declare-fun T_73 () String)
(declare-fun T_74 () String)
(declare-fun T_75 () String)
(declare-fun T_76 () String)
(declare-fun T_77 () String)
(declare-fun T_78 () Int)
(declare-fun T_7a () Bool)
(declare-fun T_7b () Bool)
(declare-fun T_8 () Bool)
(declare-fun T_9 () Bool)
(declare-fun T_SELECT_1 () Bool)
(declare-fun T_SELECT_10 () Bool)
(declare-fun T_SELECT_2 () Bool)
(declare-fun T_SELECT_3 () Bool)
(declare-fun T_SELECT_4 () Bool)
(declare-fun T_SELECT_5 () Bool)
(declare-fun T_SELECT_6 () Bool)
(declare-fun T_SELECT_7 () Bool)
(declare-fun T_SELECT_8 () Bool)
(declare-fun T_SELECT_9 () Bool)
(declare-fun T_a () Bool)
(declare-fun T_c () Bool)
(declare-fun T_e () Bool)
(declare-fun T_f () Bool) 
 
(assert (= T_61 (Concat "__utmb=" PCTEMP_LHS_6)))
(assert (= T_66 (Concat T_61 ";/;"))) 
(assert (= T_SELECT_9 (not (= PCTEMP_LHS_11 (- 1)))))


(assert (ite T_SELECT_9 (and (= PCTEMP_LHS_11 (+ I0_175 0)) (= T_66 (Concat T0_175 T1_175)) (= I0_175 (Length T4_175)) (= 0 (Length T0_175)) (= T1_175 (Concat T2_175 T3_175)) (= T2_175 (Concat T4_175 T5_175)) (= T5_175 "__utma=169413169.") ) (and (= PCTEMP_LHS_11 (- 1)) (= T_66 (Concat T0_175 T1_175)) (= 0 (Length T0_175)) )))
(assert (= T_68 (< (- 1) PCTEMP_LHS_11)))
(assert T_68) 
(assert (= T_72 (Concat "__utmb=" PCTEMP_LHS_6)))
(assert (= T_77 (Concat T_72 ";/;"))) 
(assert (= T_78 (+ PCTEMP_LHS_11 7))) 


(assert (= T_77 (Concat T1_207 T2_207)))
(assert (= T2_207 (Concat "-" T3_207)))
(assert (= T_78 (Length T1_207)))
(assert (= I1_207 (Length T_77)))  
(check-sat)
